0000000000000000
0000011000000000
0000111111110000
0001111111111000
0001111111111100
0011111111111100
0000001000111100
0000011000111100
0000111000111100
0000111000011100
0000111000011100
0000111000011100
0000110000011000
0000100000010000
0000000000000000
0000000000000000
